data;
param n:=100;
param w:=1 -290 2 -7 3 167 4 417 5 -436 6 314 7 -371 8 -61 9 -3 10 188 11 62 12 304 13 -11 14 67 15 -135 16 -372 17 -162 18 423 19 400 20 419 21 250 22 400 23 52 24 108 25 483 26 -33 27 -487 28 141 29 351 30 41 31 -14 32 120 33 -276 34 395 35 -161 36 -183 37 492 38 -144 39 -408 40 -9 41 176 42 -304 43 75 44 206 45 15 46 178 47 -133 48 487 49 328 50 286 51 323 52 -415 53 -178 54 302 55 108 56 88 57 212 58 -409 59 107 60 -9 61 26 62 -428 63 -109 64 -186 65 -49 66 -149 67 -331 68 -339 69 -250 70 -428 71 36 72 77 73 209 74 -133 75 -212 76 -199 77 -78 78 -254 79 20 80 435 81 250 82 339 83 -21 84 -444 85 -489 86 -59 87 -207 88 228 89 -65 90 347 91 -254 92 -354 93 -60 94 -69 95 229 96 -351 97 -38 98 57 99 -23 100 -148;
